(declare-fun temp7778_1 () (_ BitVec 64))
(declare-fun var461682 () (_ BitVec 64))
(declare-fun var461681 () (_ BitVec 64))
(declare-fun var134653 () (_ BitVec 64))
(declare-fun var528535 () (_ BitVec 64))
(declare-fun var594392 () (_ BitVec 64))
(declare-fun temp7778_2 () (_ BitVec 64))
(declare-fun var2494037 () (_ BitVec 64))
(declare-fun var2494042 () (_ BitVec 64))
(declare-fun temp7778_3 () (_ BitVec 64))
(declare-fun var3018325 () (_ BitVec 64))
(declare-fun var3018330 () (_ BitVec 64))
(declare-fun temp7778_5 () (_ BitVec 64))
(declare-fun temp7778_4 () (_ BitVec 64))
(declare-fun temp7778_7 () (_ BitVec 64))
(declare-fun temp7778_6 () (_ BitVec 64))
(declare-fun temp7778_9 () (_ BitVec 64))
(declare-fun temp7778_8 () (_ BitVec 64))
(declare-fun temp7778_11 () (_ BitVec 64))
(declare-fun temp7778_10 () (_ BitVec 64))
(declare-fun temp7778_13 () (_ BitVec 64))
(declare-fun temp7778_12 () (_ BitVec 64))
(declare-fun temp7778_15 () (_ BitVec 64))
(declare-fun temp7778_14 () (_ BitVec 64))
(declare-fun temp7778_17 () (_ BitVec 64))
(declare-fun temp7778_16 () (_ BitVec 64))
(declare-fun temp7778_19 () (_ BitVec 64))
(declare-fun temp7778_18 () (_ BitVec 64))
(declare-fun temp7778_21 () (_ BitVec 64))
(declare-fun temp7778_20 () (_ BitVec 64))
(declare-fun temp7778_23 () (_ BitVec 64))
(declare-fun temp7778_22 () (_ BitVec 64))
(declare-fun temp7778_25 () (_ BitVec 64))
(declare-fun temp7778_24 () (_ BitVec 64))
(declare-fun temp7778_27 () (_ BitVec 64))
(declare-fun temp7778_26 () (_ BitVec 64))
(declare-fun temp7778_29 () (_ BitVec 64))
(declare-fun temp7778_28 () (_ BitVec 64))
(declare-fun temp7778_31 () (_ BitVec 64))
(declare-fun temp7778_30 () (_ BitVec 64))
(declare-fun temp7778_33 () (_ BitVec 64))
(declare-fun temp7778_32 () (_ BitVec 64))
(declare-fun temp7778_35 () (_ BitVec 64))
(declare-fun temp7778_34 () (_ BitVec 64))
(declare-fun temp7778_37 () (_ BitVec 64))
(declare-fun temp7778_36 () (_ BitVec 64))
(declare-fun temp7778_39 () (_ BitVec 64))
(declare-fun temp7778_38 () (_ BitVec 64))
(declare-fun temp7778_41 () (_ BitVec 64))
(declare-fun temp7778_40 () (_ BitVec 64))
(declare-fun temp7778_43 () (_ BitVec 64))
(declare-fun temp7778_42 () (_ BitVec 64))
(declare-fun temp7778_45 () (_ BitVec 64))
(declare-fun temp7778_44 () (_ BitVec 64))
(declare-fun temp7778_47 () (_ BitVec 64))
(declare-fun temp7778_46 () (_ BitVec 64))
(declare-fun temp7778_49 () (_ BitVec 64))
(declare-fun temp7778_48 () (_ BitVec 64))
(declare-fun temp7778_51 () (_ BitVec 64))
(declare-fun temp7778_50 () (_ BitVec 64))
(declare-fun temp7778_53 () (_ BitVec 64))
(declare-fun temp7778_52 () (_ BitVec 64))
(declare-fun temp7778_55 () (_ BitVec 64))
(declare-fun temp7778_54 () (_ BitVec 64))
(declare-fun temp7778_57 () (_ BitVec 64))
(declare-fun temp7778_56 () (_ BitVec 64))
(declare-fun temp7778_58 () (_ BitVec 64))
(declare-fun var4263509 () (_ BitVec 64))
(declare-fun var4263514 () (_ BitVec 64))
(assert (= temp7778_1 #x0000000000000007))
(assert (= var461682 temp7778_1))
(assert (= var461681 var461682))
(assert (= var134653 var461681))
(assert (= var528535 var134653))
(assert (= var594392 var528535))
(assert (= temp7778_2 #x0000000000000000))
(assert (= var2494037 temp7778_2))
(assert (= var2494042 var2494037))
(assert (= temp7778_3 #x0000000000000000))
(assert (= var3018325 temp7778_3))
(assert (= var3018330 var3018325))
(assert (= temp7778_5 #x0000000000000000))
(assert (= temp7778_4 temp7778_5))
(assert (= temp7778_7 #x0000000000000000))
(assert (= temp7778_6 temp7778_7))
(assert (= temp7778_9 #x0000000000000000))
(assert (= temp7778_8 temp7778_9))
(assert (= temp7778_11 #x0000000000000000))
(assert (= temp7778_10 temp7778_11))
(assert (= temp7778_13 #x0000000000000000))
(assert (= temp7778_12 temp7778_13))
(assert (= temp7778_15 #x0000000000000000))
(assert (= temp7778_14 temp7778_15))
(assert (= temp7778_17 #x0000000000000000))
(assert (= temp7778_16 temp7778_17))
(assert (= temp7778_19 #x0000000000000000))
(assert (= temp7778_18 temp7778_19))
(assert (= temp7778_21 #x0000000000000000))
(assert (= temp7778_20 temp7778_21))
(assert (= temp7778_23 #x0000000000000000))
(assert (= temp7778_22 temp7778_23))
(assert (= temp7778_25 #x0000000000000000))
(assert (= temp7778_24 temp7778_25))
(assert (= temp7778_27 #x0000000000000000))
(assert (= temp7778_26 temp7778_27))
(assert (= temp7778_29 #x0000000000000000))
(assert (= temp7778_28 temp7778_29))
(assert (= temp7778_31 #x0000000000000000))
(assert (= temp7778_30 temp7778_31))
(assert (= temp7778_33 #x0000000000000000))
(assert (= temp7778_32 temp7778_33))
(assert (= temp7778_35 #x0000000000000000))
(assert (= temp7778_34 temp7778_35))
(assert (= temp7778_37 #x0000000000000000))
(assert (= temp7778_36 temp7778_37))
(assert (= temp7778_39 #x0000000000000000))
(assert (= temp7778_38 temp7778_39))
(assert (= temp7778_41 #x0000000000000000))
(assert (= temp7778_40 temp7778_41))
(assert (= temp7778_43 #x0000000000000000))
(assert (= temp7778_42 temp7778_43))
(assert (= temp7778_45 #x0000000000000000))
(assert (= temp7778_44 temp7778_45))
(assert (= temp7778_47 #x0000000000000000))
(assert (= temp7778_46 temp7778_47))
(assert (= temp7778_49 #x0000000000000000))
(assert (= temp7778_48 temp7778_49))
(assert (= temp7778_51 #x0000000000000000))
(assert (= temp7778_50 temp7778_51))
(assert (= temp7778_53 #x0000000000000000))
(assert (= temp7778_52 temp7778_53))
(assert (= temp7778_55 #x0000000000000000))
(assert (= temp7778_54 temp7778_55))
(assert (= temp7778_57 #x0000000000000000))
(assert (= temp7778_56 temp7778_57))
(assert (= temp7778_58 #x0000000000000000))
(assert (= var4263509 temp7778_58))
(assert (= var4263514 var4263509))
(model-add temp7778_1 () (_ BitVec 64) #x0000000000000007)
(model-add var461682 () (_ BitVec 64) #x0000000000000007)
(model-add var461681 () (_ BitVec 64) #x0000000000000007)
(model-add var134653 () (_ BitVec 64) #x0000000000000007)
(model-add var528535 () (_ BitVec 64) #x0000000000000007)
(model-add var594392 () (_ BitVec 64) #x0000000000000007)
(model-add temp7778_2 () (_ BitVec 64) #x0000000000000000)
(model-add var2494037 () (_ BitVec 64) #x0000000000000000)
(model-add var2494042 () (_ BitVec 64) #x0000000000000000)
(model-add temp7778_3 () (_ BitVec 64) #x0000000000000000)
(model-add var3018325 () (_ BitVec 64) #x0000000000000000)
(model-add var3018330 () (_ BitVec 64) #x0000000000000000)
(model-add temp7778_5 () (_ BitVec 64) #x0000000000000000)
(model-add temp7778_4 () (_ BitVec 64) #x0000000000000000)
(model-add temp7778_7 () (_ BitVec 64) #x0000000000000000)
(model-add temp7778_6 () (_ BitVec 64) #x0000000000000000)
(model-add temp7778_9 () (_ BitVec 64) #x0000000000000000)
(model-add temp7778_8 () (_ BitVec 64) #x0000000000000000)
(model-add temp7778_11 () (_ BitVec 64) #x0000000000000000)
(model-add temp7778_10 () (_ BitVec 64) #x0000000000000000)
(model-add temp7778_13 () (_ BitVec 64) #x0000000000000000)
(model-add temp7778_12 () (_ BitVec 64) #x0000000000000000)
(model-add temp7778_15 () (_ BitVec 64) #x0000000000000000)
(model-add temp7778_14 () (_ BitVec 64) #x0000000000000000)
(model-add temp7778_17 () (_ BitVec 64) #x0000000000000000)
(model-add temp7778_16 () (_ BitVec 64) #x0000000000000000)
(model-add temp7778_19 () (_ BitVec 64) #x0000000000000000)
(model-add temp7778_18 () (_ BitVec 64) #x0000000000000000)
(model-add temp7778_21 () (_ BitVec 64) #x0000000000000000)
(model-add temp7778_20 () (_ BitVec 64) #x0000000000000000)
(model-add temp7778_23 () (_ BitVec 64) #x0000000000000000)
(model-add temp7778_22 () (_ BitVec 64) #x0000000000000000)
(model-add temp7778_25 () (_ BitVec 64) #x0000000000000000)
(model-add temp7778_24 () (_ BitVec 64) #x0000000000000000)
(model-add temp7778_27 () (_ BitVec 64) #x0000000000000000)
(model-add temp7778_26 () (_ BitVec 64) #x0000000000000000)
(model-add temp7778_29 () (_ BitVec 64) #x0000000000000000)
(model-add temp7778_28 () (_ BitVec 64) #x0000000000000000)
(model-add temp7778_31 () (_ BitVec 64) #x0000000000000000)
(model-add temp7778_30 () (_ BitVec 64) #x0000000000000000)
(model-add temp7778_33 () (_ BitVec 64) #x0000000000000000)
(model-add temp7778_32 () (_ BitVec 64) #x0000000000000000)
(model-add temp7778_35 () (_ BitVec 64) #x0000000000000000)
(model-add temp7778_34 () (_ BitVec 64) #x0000000000000000)
(model-add temp7778_37 () (_ BitVec 64) #x0000000000000000)
(model-add temp7778_36 () (_ BitVec 64) #x0000000000000000)
(model-add temp7778_39 () (_ BitVec 64) #x0000000000000000)
(model-add temp7778_38 () (_ BitVec 64) #x0000000000000000)
(model-add temp7778_41 () (_ BitVec 64) #x0000000000000000)
(model-add temp7778_40 () (_ BitVec 64) #x0000000000000000)
(model-add temp7778_43 () (_ BitVec 64) #x0000000000000000)
(model-add temp7778_42 () (_ BitVec 64) #x0000000000000000)
(model-add temp7778_45 () (_ BitVec 64) #x0000000000000000)
(model-add temp7778_44 () (_ BitVec 64) #x0000000000000000)
(model-add temp7778_47 () (_ BitVec 64) #x0000000000000000)
(model-add temp7778_46 () (_ BitVec 64) #x0000000000000000)
(model-add temp7778_49 () (_ BitVec 64) #x0000000000000000)
(model-add temp7778_48 () (_ BitVec 64) #x0000000000000000)
(model-add temp7778_51 () (_ BitVec 64) #x0000000000000000)
(model-add temp7778_50 () (_ BitVec 64) #x0000000000000000)
(model-add temp7778_53 () (_ BitVec 64) #x0000000000000000)
(model-add temp7778_52 () (_ BitVec 64) #x0000000000000000)
(model-add temp7778_55 () (_ BitVec 64) #x0000000000000000)
(model-add temp7778_54 () (_ BitVec 64) #x0000000000000000)
(model-add temp7778_57 () (_ BitVec 64) #x0000000000000000)
(model-add temp7778_56 () (_ BitVec 64) #x0000000000000000)
(model-add temp7778_58 () (_ BitVec 64) #x0000000000000000)
(model-add var4263509 () (_ BitVec 64) #x0000000000000000)
(model-add var4263514 () (_ BitVec 64) #x0000000000000000)









